{% if comments %}
# {{comments}}
{% endif %}

# ! UKS BP SV(P) SV/J Direct TightSCF Grid3 NoFinalGrid
# ! Split-RI-J SlowConv Uncontract

{% if calc_arrays is defined %}
! {{calc_arrays['command']}}
{% else %}
! UKS B3LYP SV(P) SV/J Direct TightSCF Grid3 NoFinalGrid
{% endif %}


%method
    SpecialGridAtoms = 25
    SpecialGridIntAcc = 7
end

%basis
    NewGTO    25 "TZVPP" end
    NewAuxGTO 25 "TZV/J" end
end

%rel method ZORA
    ModelPot 1,1,1,1
    ModelDens rhoZORA
    PictureChange true
end


* xyz {{charge}} {{multiplicity}}
{% for i in range(symbols|length) %}
{{symbols[i]}}    {{positions[i][0]}}    {{positions[i][1]}}    {{positions[i][2]}}
{% endfor %}
*